p cnf 298 1062
1 0
2 0
3 0
4 0
5 0
-6 0
7 0
8 0
9 0
10 0
11 12 13 14 0
-11 -12 0
-11 -13 0
-11 -14 0
-12 -13 0
-12 -14 0
-13 -14 0
15 -1 -16 0
1 -15 -16 0
-15 -1 16 0
1 15 16 0
-11 -16 0
1 -17 -18 0
17 -1 -18 0
18 -1 -17 0
18 1 17 0
-12 18 0
-15 19 0
-17 19 0
15 17 -19 0
1 -19 -20 0
-1 19 -20 0
-1 -19 20 0
1 19 20 0
-13 20 0
15 21 0
17 21 0
-15 -17 -21 0
-1 21 -22 0
1 -21 -22 0
22 -21 -1 0
1 21 22 0
-14 -22 0
17 -23 -24 0
23 -17 -24 0
-17 -23 24 0
17 23 24 0
-11 -24 0
-15 23 -25 0
15 -23 -25 0
25 -23 -15 0
25 23 15 0
-12 25 0
-1 26 0
-17 26 0
1 17 -26 0
23 -26 -27 0
-23 26 -27 0
-23 -26 27 0
23 26 27 0
-13 27 0
17 28 0
1 28 0
-17 -1 -28 0
-23 28 -29 0
23 -28 -29 0
29 -28 -23 0
23 28 29 0
-14 -29 0
30 -2 -31 0
2 -30 -31 0
-30 -2 31 0
2 30 31 0
-11 -31 0
2 -32 -33 0
32 -2 -33 0
33 -2 -32 0
33 2 32 0
-12 33 0
-30 34 0
-32 34 0
-35 34 0
-36 34 0
-37 34 0
-38 34 0
-39 34 0
40 0
2 -34 -41 0
-2 34 -41 0
-2 -34 41 0
2 34 41 0
-13 41 0
30 42 0
32 42 0
35 42 0
36 42 0
37 42 0
38 42 0
39 42 0
-43 0
-2 42 -44 0
2 -42 -44 0
44 -42 -2 0
2 42 44 0
-14 -44 0
32 -45 -46 0
45 -32 -46 0
-32 -45 46 0
32 45 46 0
-11 -46 0
45 -35 -47 0
35 -45 -47 0
47 -45 -35 0
47 45 35 0
-12 47 0
-32 48 0
-35 48 0
-36 48 0
-37 48 0
-38 48 0
-39 48 0
32 35 36 37 38 39 -48 0
45 -48 -49 0
-45 48 -49 0
-45 -48 49 0
45 48 49 0
-13 49 0
32 50 0
35 50 0
36 50 0
37 50 0
38 50 0
39 50 0
-51 0
-45 50 -52 0
45 -50 -52 0
52 -50 -45 0
45 50 52 0
-14 -52 0
35 -53 -54 0
53 -35 -54 0
-35 -53 54 0
35 53 54 0
-11 -54 0
53 -36 -55 0
36 -53 -55 0
55 -53 -36 0
55 53 36 0
-12 55 0
-35 56 0
-36 56 0
-37 56 0
-38 56 0
-39 56 0
35 36 37 38 39 -56 0
53 -56 -57 0
-53 56 -57 0
-53 -56 57 0
53 56 57 0
-13 57 0
35 58 0
36 58 0
37 58 0
38 58 0
39 58 0
-59 0
-53 58 -60 0
53 -58 -60 0
60 -58 -53 0
53 58 60 0
-14 -60 0
36 -61 -62 0
61 -36 -62 0
-36 -61 62 0
36 61 62 0
-11 -62 0
61 -37 -63 0
37 -61 -63 0
63 -61 -37 0
63 61 37 0
-12 63 0
-36 64 0
-37 64 0
-38 64 0
-39 64 0
36 37 38 39 -64 0
61 -64 -65 0
-61 64 -65 0
-61 -64 65 0
61 64 65 0
-13 65 0
36 66 0
37 66 0
38 66 0
39 66 0
-67 0
-61 66 -68 0
61 -66 -68 0
68 -66 -61 0
61 66 68 0
-14 -68 0
37 -69 -70 0
69 -37 -70 0
-37 -69 70 0
37 69 70 0
-11 -70 0
69 -38 -71 0
38 -69 -71 0
71 -69 -38 0
71 69 38 0
-12 71 0
69 -64 -72 0
-69 64 -72 0
-69 -64 72 0
69 64 72 0
-13 72 0
-69 66 -73 0
69 -66 -73 0
73 -66 -69 0
69 66 73 0
-14 -73 0
38 -74 -75 0
74 -38 -75 0
-38 -74 75 0
38 74 75 0
-11 -75 0
74 -39 -76 0
39 -74 -76 0
76 -74 -39 0
76 74 39 0
-12 76 0
74 -64 -77 0
-74 64 -77 0
-74 -64 77 0
74 64 77 0
-13 77 0
-74 66 -78 0
74 -66 -78 0
78 -66 -74 0
74 66 78 0
-14 -78 0
39 -79 -80 0
79 -39 -80 0
-39 -79 80 0
39 79 80 0
-11 -80 0
-36 79 -81 0
36 -79 -81 0
81 -79 -36 0
81 79 36 0
-12 81 0
-39 82 0
-61 82 0
39 61 -82 0
79 -82 -83 0
-79 82 -83 0
-79 -82 83 0
79 82 83 0
-13 83 0
39 84 0
61 84 0
-39 -61 -84 0
-79 84 -85 0
79 -84 -85 0
85 -84 -79 0
79 84 85 0
-14 -85 0
86 -3 -87 0
3 -86 -87 0
-86 -3 87 0
3 86 87 0
-11 -87 0
3 -88 -89 0
88 -3 -89 0
89 -3 -88 0
89 3 88 0
-12 89 0
-86 90 0
-88 90 0
-91 90 0
-92 90 0
-93 90 0
-94 90 0
-95 90 0
96 0
3 -90 -97 0
-3 90 -97 0
-3 -90 97 0
3 90 97 0
-13 97 0
86 98 0
88 98 0
91 98 0
92 98 0
93 98 0
94 98 0
95 98 0
-99 0
-3 98 -100 0
3 -98 -100 0
100 -98 -3 0
3 98 100 0
-14 -100 0
88 -101 -102 0
101 -88 -102 0
-88 -101 102 0
88 101 102 0
-11 -102 0
101 -91 -103 0
91 -101 -103 0
103 -101 -91 0
103 101 91 0
-12 103 0
-88 104 0
-91 104 0
-92 104 0
-93 104 0
-94 104 0
-95 104 0
105 0
101 -104 -106 0
-101 104 -106 0
-101 -104 106 0
101 104 106 0
-13 106 0
88 107 0
91 107 0
92 107 0
93 107 0
94 107 0
95 107 0
-108 0
-101 107 -109 0
101 -107 -109 0
109 -107 -101 0
101 107 109 0
-14 -109 0
91 -4 -110 0
4 -91 -110 0
-91 -4 110 0
91 4 110 0
-11 -110 0
4 -92 -111 0
92 -4 -111 0
111 -4 -92 0
111 4 92 0
-12 111 0
-91 112 0
-92 112 0
-93 112 0
-94 112 0
-95 112 0
91 92 93 94 95 -112 0
4 -112 -113 0
-4 112 -113 0
-4 -112 113 0
4 112 113 0
-13 113 0
91 114 0
92 114 0
93 114 0
94 114 0
95 114 0
-115 0
-4 114 -116 0
4 -114 -116 0
116 -114 -4 0
4 114 116 0
-14 -116 0
92 -117 -118 0
117 -92 -118 0
-92 -117 118 0
92 117 118 0
-11 -118 0
117 -93 -119 0
93 -117 -119 0
119 -117 -93 0
119 117 93 0
-12 119 0
-92 120 0
-93 120 0
-94 120 0
-95 120 0
92 93 94 95 -120 0
117 -120 -121 0
-117 120 -121 0
-117 -120 121 0
117 120 121 0
-13 121 0
92 122 0
93 122 0
94 122 0
95 122 0
-123 0
-117 122 -124 0
117 -122 -124 0
124 -122 -117 0
117 122 124 0
-14 -124 0
93 -125 -126 0
125 -93 -126 0
-93 -125 126 0
93 125 126 0
-11 -126 0
125 -94 -127 0
94 -125 -127 0
127 -125 -94 0
127 125 94 0
-12 127 0
125 -120 -128 0
-125 120 -128 0
-125 -120 128 0
125 120 128 0
-13 128 0
-125 122 -129 0
125 -122 -129 0
129 -122 -125 0
125 122 129 0
-14 -129 0
94 -130 -131 0
130 -94 -131 0
-94 -130 131 0
94 130 131 0
-11 -131 0
130 -95 -132 0
95 -130 -132 0
132 -130 -95 0
132 130 95 0
-12 132 0
130 -120 -133 0
-130 120 -133 0
-130 -120 133 0
130 120 133 0
-13 133 0
-130 122 -134 0
130 -122 -134 0
134 -122 -130 0
130 122 134 0
-14 -134 0
95 -135 -136 0
135 -95 -136 0
-95 -135 136 0
95 135 136 0
-11 -136 0
-92 135 -137 0
92 -135 -137 0
137 -135 -92 0
137 135 92 0
-12 137 0
-95 138 0
-117 138 0
95 117 -138 0
135 -138 -139 0
-135 138 -139 0
-135 -138 139 0
135 138 139 0
-13 139 0
95 140 0
117 140 0
-95 -117 -140 0
-135 140 -141 0
135 -140 -141 0
141 -140 -135 0
135 140 141 0
-14 -141 0
142 -5 -143 0
5 -142 -143 0
-142 -5 143 0
5 142 143 0
-11 -143 0
5 -144 -145 0
144 -5 -145 0
145 -5 -144 0
145 5 144 0
-12 145 0
-142 146 0
-144 146 0
-147 146 0
142 144 147 -146 0
5 -146 -148 0
-5 146 -148 0
-5 -146 148 0
5 146 148 0
-13 148 0
142 149 0
144 149 0
147 149 0
-142 -144 -147 -149 0
-5 149 -150 0
5 -149 -150 0
150 -149 -5 0
5 149 150 0
-14 -150 0
144 -151 -152 0
151 -144 -152 0
-144 -151 152 0
144 151 152 0
-11 -152 0
151 -147 -153 0
147 -151 -153 0
153 -151 -147 0
153 151 147 0
-12 153 0
-144 154 0
-147 154 0
144 147 -154 0
151 -154 -155 0
-151 154 -155 0
-151 -154 155 0
151 154 155 0
-13 155 0
144 156 0
147 156 0
-144 -147 -156 0
-151 156 -157 0
151 -156 -157 0
157 -156 -151 0
151 156 157 0
-14 -157 0
147 -6 -158 0
6 -147 -158 0
-147 -6 158 0
147 6 158 0
-11 -158 0
6 -147 -159 0
147 -6 -159 0
159 -6 -147 0
159 6 147 0
-12 159 0
-147 160 0
-6 160 0
147 6 -160 0
6 -160 -161 0
-6 160 -161 0
-6 -160 161 0
6 160 161 0
-13 161 0
147 162 0
6 162 0
-147 -6 -162 0
-6 162 -163 0
6 -162 -163 0
163 -162 -6 0
6 162 163 0
-14 -163 0
164 -7 -165 0
7 -164 -165 0
-164 -7 165 0
7 164 165 0
-11 -165 0
7 -166 -167 0
166 -7 -167 0
167 -7 -166 0
167 7 166 0
-12 167 0
-164 168 0
-166 168 0
-169 168 0
-170 168 0
-171 168 0
164 166 169 170 171 -168 0
7 -168 -172 0
-7 168 -172 0
-7 -168 172 0
7 168 172 0
-13 172 0
164 173 0
166 173 0
169 173 0
170 173 0
171 173 0
-174 0
-7 173 -175 0
7 -173 -175 0
175 -173 -7 0
7 173 175 0
-14 -175 0
166 -176 -177 0
176 -166 -177 0
-166 -176 177 0
166 176 177 0
-11 -177 0
176 -169 -178 0
169 -176 -178 0
178 -176 -169 0
178 176 169 0
-12 178 0
-166 179 0
-169 179 0
-170 179 0
-171 179 0
166 169 170 171 -179 0
176 -179 -180 0
-176 179 -180 0
-176 -179 180 0
176 179 180 0
-13 180 0
166 181 0
169 181 0
170 181 0
171 181 0
-182 0
-176 181 -183 0
176 -181 -183 0
183 -181 -176 0
176 181 183 0
-14 -183 0
169 -184 -185 0
184 -169 -185 0
-169 -184 185 0
169 184 185 0
-11 -185 0
184 -170 -186 0
170 -184 -186 0
186 -184 -170 0
186 184 170 0
-12 186 0
-169 187 0
-170 187 0
-171 187 0
169 170 171 -187 0
184 -187 -188 0
-184 187 -188 0
-184 -187 188 0
184 187 188 0
-13 188 0
169 189 0
170 189 0
171 189 0
-169 -170 -171 -189 0
-184 189 -190 0
184 -189 -190 0
190 -189 -184 0
184 189 190 0
-14 -190 0
170 -191 -192 0
191 -170 -192 0
-170 -191 192 0
170 191 192 0
-11 -192 0
191 -171 -193 0
171 -191 -193 0
193 -191 -171 0
193 191 171 0
-12 193 0
191 -187 -194 0
-191 187 -194 0
-191 -187 194 0
191 187 194 0
-13 194 0
-191 189 -195 0
191 -189 -195 0
195 -189 -191 0
191 189 195 0
-14 -195 0
171 -196 -197 0
196 -171 -197 0
-171 -196 197 0
171 196 197 0
-11 -197 0
-169 196 -198 0
169 -196 -198 0
198 -196 -169 0
198 196 169 0
-12 198 0
-171 199 0
-184 199 0
171 184 -199 0
196 -199 -200 0
-196 199 -200 0
-196 -199 200 0
196 199 200 0
-13 200 0
171 201 0
184 201 0
-171 -184 -201 0
-196 201 -202 0
196 -201 -202 0
202 -201 -196 0
196 201 202 0
-14 -202 0
203 -8 -204 0
8 -203 -204 0
-203 -8 204 0
8 203 204 0
-11 -204 0
8 -205 -206 0
205 -8 -206 0
206 -8 -205 0
206 8 205 0
-12 206 0
-15 207 0
-17 207 0
-203 207 0
-205 207 0
-208 207 0
-209 207 0
15 17 203 205 208 209 -207 0
8 -207 -210 0
-8 207 -210 0
-8 -207 210 0
8 207 210 0
-13 210 0
15 211 0
17 211 0
203 211 0
205 211 0
208 211 0
209 211 0
-212 0
-8 211 -213 0
8 -211 -213 0
213 -211 -8 0
8 211 213 0
-14 -213 0
205 -214 -215 0
214 -205 -215 0
-205 -214 215 0
205 214 215 0
-11 -215 0
214 -208 -216 0
208 -214 -216 0
216 -214 -208 0
216 214 208 0
-12 216 0
-15 217 0
-17 217 0
-205 217 0
-208 217 0
-209 217 0
15 17 205 208 209 -217 0
214 -217 -218 0
-214 217 -218 0
-214 -217 218 0
214 217 218 0
-13 218 0
15 219 0
17 219 0
205 219 0
208 219 0
209 219 0
-220 0
-214 219 -221 0
214 -219 -221 0
221 -219 -214 0
214 219 221 0
-14 -221 0
208 -222 -223 0
222 -208 -223 0
-208 -222 223 0
208 222 223 0
-11 -223 0
222 -209 -224 0
209 -222 -224 0
224 -222 -209 0
224 222 209 0
-12 224 0
-15 225 0
-17 225 0
-208 225 0
-209 225 0
15 17 208 209 -225 0
222 -225 -226 0
-222 225 -226 0
-222 -225 226 0
222 225 226 0
-13 226 0
15 227 0
17 227 0
208 227 0
209 227 0
-228 0
-222 227 -229 0
222 -227 -229 0
229 -227 -222 0
222 227 229 0
-14 -229 0
209 -230 -231 0
230 -209 -231 0
-209 -230 231 0
209 230 231 0
-11 -231 0
-15 230 -232 0
15 -230 -232 0
232 -230 -15 0
232 230 15 0
-12 232 0
-15 233 0
-17 233 0
-209 233 0
15 17 209 -233 0
230 -233 -234 0
-230 233 -234 0
-230 -233 234 0
230 233 234 0
-13 234 0
15 235 0
17 235 0
209 235 0
-15 -17 -209 -235 0
-230 235 -236 0
230 -235 -236 0
236 -235 -230 0
230 235 236 0
-14 -236 0
237 -9 -238 0
9 -237 -238 0
-237 -9 238 0
9 237 238 0
-11 -238 0
9 -239 -240 0
239 -9 -240 0
240 -9 -239 0
240 9 239 0
-12 240 0
-169 241 0
-170 241 0
-171 241 0
-237 241 0
-239 241 0
-242 241 0
-243 241 0
244 0
9 -241 -245 0
-9 241 -245 0
-9 -241 245 0
9 241 245 0
-13 245 0
169 246 0
170 246 0
171 246 0
237 246 0
239 246 0
242 246 0
243 246 0
-247 0
-9 246 -248 0
9 -246 -248 0
248 -246 -9 0
9 246 248 0
-14 -248 0
239 -249 -250 0
249 -239 -250 0
-239 -249 250 0
239 249 250 0
-11 -250 0
249 -242 -251 0
242 -249 -251 0
251 -249 -242 0
251 249 242 0
-12 251 0
-169 252 0
-170 252 0
-171 252 0
-239 252 0
-242 252 0
-243 252 0
253 0
249 -252 -254 0
-249 252 -254 0
-249 -252 254 0
249 252 254 0
-13 254 0
169 255 0
170 255 0
171 255 0
239 255 0
242 255 0
243 255 0
-256 0
-249 255 -257 0
249 -255 -257 0
257 -255 -249 0
249 255 257 0
-14 -257 0
242 -258 -259 0
258 -242 -259 0
-242 -258 259 0
242 258 259 0
-11 -259 0
258 -243 -260 0
243 -258 -260 0
260 -258 -243 0
260 258 243 0
-12 260 0
-169 261 0
-170 261 0
-171 261 0
-242 261 0
-243 261 0
169 170 171 242 243 -261 0
258 -261 -262 0
-258 261 -262 0
-258 -261 262 0
258 261 262 0
-13 262 0
169 263 0
170 263 0
171 263 0
242 263 0
243 263 0
-264 0
-258 263 -265 0
258 -263 -265 0
265 -263 -258 0
258 263 265 0
-14 -265 0
243 -266 -267 0
266 -243 -267 0
-243 -266 267 0
243 266 267 0
-11 -267 0
-171 266 -268 0
171 -266 -268 0
268 -266 -171 0
268 266 171 0
-12 268 0
-169 269 0
-170 269 0
-171 269 0
-243 269 0
169 170 171 243 -269 0
266 -269 -270 0
-266 269 -270 0
-266 -269 270 0
266 269 270 0
-13 270 0
169 271 0
170 271 0
171 271 0
243 271 0
-272 0
-266 271 -273 0
266 -271 -273 0
273 -271 -266 0
266 271 273 0
-14 -273 0
274 -10 -275 0
10 -274 -275 0
-274 -10 275 0
10 274 275 0
-11 -275 0
10 -276 -277 0
276 -10 -277 0
277 -10 -276 0
277 10 276 0
-12 277 0
-15 278 0
-17 278 0
-274 278 0
-276 278 0
-279 278 0
15 17 274 276 279 -278 0
10 -278 -280 0
-10 278 -280 0
-10 -278 280 0
10 278 280 0
-13 280 0
15 281 0
17 281 0
274 281 0
276 281 0
279 281 0
-282 0
-10 281 -283 0
10 -281 -283 0
283 -281 -10 0
10 281 283 0
-14 -283 0
276 -284 -285 0
284 -276 -285 0
-276 -284 285 0
276 284 285 0
-11 -285 0
284 -279 -286 0
279 -284 -286 0
286 -284 -279 0
286 284 279 0
-12 286 0
-15 287 0
-17 287 0
-276 287 0
-279 287 0
15 17 276 279 -287 0
284 -287 -288 0
-284 287 -288 0
-284 -287 288 0
284 287 288 0
-13 288 0
15 289 0
17 289 0
276 289 0
279 289 0
-290 0
-284 289 -291 0
284 -289 -291 0
291 -289 -284 0
284 289 291 0
-14 -291 0
279 -292 -293 0
292 -279 -293 0
-279 -292 293 0
279 292 293 0
-11 -293 0
-17 292 -294 0
17 -292 -294 0
294 -292 -17 0
294 292 17 0
-12 294 0
-15 295 0
-17 295 0
-279 295 0
15 17 279 -295 0
292 -295 -296 0
-292 295 -296 0
-292 -295 296 0
292 295 296 0
-13 296 0
15 297 0
17 297 0
279 297 0
-15 -17 -279 -297 0
-292 297 -298 0
292 -297 -298 0
298 -297 -292 0
292 297 298 0
-14 -298 0
15 0
-17 0
-30 0
-32 0
35 0
-36 0
37 0
-38 0
-39 0
86 0
88 0
-91 0
92 0
93 0
-94 0
95 0
142 0
144 0
-147 0
164 0
-166 0
-169 0
-170 0
171 0
-203 0
-205 0
-208 0
209 0
-237 0
-239 0
-242 0
243 0
274 0
-276 0
-279 0
